CPXPARAM_MIP_Tolerances_MIPGap                   0
Tried aggregator 4 times.
MIP Presolve eliminated 90 rows and 1 columns.
MIP Presolve modified 179 coefficients.
Aggregator did 5 substitutions.
Reduced MIP has 365 rows, 234 columns, and 1002 nonzeros.
Reduced MIP has 150 binaries, 0 generals, 0 SOSs, and 0 indicators.
Presolve time = 0.00 sec. (1.28 ticks)
Found incumbent of value 15.000000 after 0.02 sec. (3.07 ticks)
Probing fixed 0 vars, tightened 1 bounds.
Probing time = 0.00 sec. (1.32 ticks)
Tried aggregator 1 time.
Reduced MIP has 365 rows, 234 columns, and 1002 nonzeros.
Reduced MIP has 150 binaries, 0 generals, 0 SOSs, and 0 indicators.
Presolve time = 0.00 sec. (0.59 ticks)
Probing fixed 0 vars, tightened 8 bounds.
Probing time = 0.00 sec. (1.07 ticks)
Clique table members: 405.
MIP emphasis: balance optimality and feasibility.
MIP search method: dynamic search.
Parallel mode: deterministic, using up to 8 threads.
Root relaxation solution time = 0.00 sec. (0.98 ticks)

        Nodes                                         Cuts/
   Node  Left     Objective  IInf  Best Integer    Best Bound    ItCnt     Gap

*     0+    0                           15.0000        1.0000            93.33%
*     0+    0                           12.0000        1.0000            91.67%
      0     0        1.0000    12       12.0000        1.0000       68   91.67%
      0     0        6.0000     2       12.0000      Cuts: 86      177   50.00%
*     0+    0                            6.0000        6.0000             0.00%
      0     0        cutoff              6.0000        6.0000      177    0.00%
Elapsed time = 0.06 sec. (10.43 ticks, tree = 0.01 MB, solutions = 3)

Clique cuts applied:  49
Implied bound cuts applied:  1
Mixed integer rounding cuts applied:  12

Root node processing (before b&c):
  Real time             =    0.06 sec. (10.45 ticks)
Parallel b&c, 8 threads:
  Real time             =    0.00 sec. (0.00 ticks)
  Sync time (average)   =    0.00 sec.
  Wait time (average)   =    0.00 sec.
                          ------------
Total (root+branch&cut) =    0.06 sec. (10.45 ticks)
